24
1 0 17
2 0 34
2 1 55
3 0 43
3 1 26
3 2 2
4 0 39
4 1 38
4 2 18
4 3 11
5 0 49
5 1 23
5 2 41
5 3 13
5 4 25
6 0 32
6 1 4
6 2 16
6 3 22
6 4 7
6 5 27
7 0 1
7 1 40
7 2 58
7 3 58
7 4 54
7 5 28
7 6 44
8 0 31
8 1 10
8 2 22
8 3 23
8 4 56
8 5 15
8 6 3
8 7 43
9 0 13
9 1 47
9 2 43
9 3 37
9 4 42
9 5 17
9 6 12
9 7 2
9 8 6
10 0 24
10 1 19
10 2 46
10 3 7
10 4 27
10 5 16
10 6 39
10 7 34
10 8 56
10 9 4
11 0 47
11 1 13
11 2 16
11 3 55
11 4 41
11 5 53
11 6 13
11 7 41
11 8 37
11 9 6
11 10 33
12 0 7
12 1 44
12 2 45
12 3 7
12 4 7
12 5 29
12 6 38
12 7 51
12 8 56
12 9 58
12 10 24
12 11 16
13 0 11
13 1 33
13 2 56
13 3 29
13 4 35
13 5 38
13 6 25
13 7 34
13 8 36
13 9 35
13 10 48
13 11 36
13 12 5
14 0 3
14 1 5
14 2 10
14 3 58
14 4 13
14 5 40
14 6 7
14 7 56
14 8 5
14 9 6
14 10 5
14 11 7
14 12 6
14 13 43
15 0 27
15 1 9
15 2 18
15 3 8
15 4 30
15 5 26
15 6 40
15 7 39
15 8 15
15 9 22
15 10 23
15 11 49
15 12 49
15 13 39
15 14 50
16 0 14
16 1 53
16 2 52
16 3 10
16 4 16
16 5 1
16 6 43
16 7 13
16 8 39
16 9 55
16 10 48
16 11 16
16 12 12
16 13 52
16 14 42
16 15 16
17 0 58
17 1 24
17 2 48
17 3 54
17 4 39
17 5 53
17 6 9
17 7 11
17 8 53
17 9 54
17 10 13
17 11 48
17 12 20
17 13 36
17 14 22
17 15 28
17 16 46
18 0 54
18 1 33
18 2 50
18 3 17
18 4 39
18 5 15
18 6 17
18 7 19
18 8 23
18 9 44
18 10 50
18 11 26
18 12 34
18 13 47
18 14 35
18 15 57
18 16 49
18 17 21
19 0 35
19 1 27
19 2 56
19 3 27
19 4 1
19 5 17
19 6 54
19 7 38
19 8 21
19 9 23
19 10 33
19 11 56
19 12 26
19 13 7
19 14 4
19 15 46
19 16 54
19 17 37
19 18 44
20 0 57
20 1 23
20 2 25
20 3 49
20 4 50
20 5 16
20 6 43
20 7 50
20 8 28
20 9 12
20 10 8
20 11 23
20 12 48
20 13 30
20 14 26
20 15 48
20 16 43
20 17 51
20 18 38
20 19 33
21 0 23
21 1 33
21 2 43
21 3 51
21 4 56
21 5 40
21 6 21
21 7 7
21 8 1
21 9 10
21 10 55
21 11 23
21 12 46
21 13 37
21 14 37
21 15 29
21 16 31
21 17 28
21 18 52
21 19 50
21 20 20
22 0 31
22 1 6
22 2 54
22 3 6
22 4 10
22 5 13
22 6 2
22 7 53
22 8 56
22 9 17
22 10 52
22 11 37
22 12 3
22 13 34
22 14 3
22 15 34
22 16 51
22 17 24
22 18 58
22 19 40
22 20 1
22 21 8
23 0 54
23 1 17
23 2 1
23 3 42
23 4 11
23 5 48
23 6 50
23 7 53
23 8 53
23 9 42
23 10 8
23 11 56
23 12 22
23 13 17
23 14 10
23 15 22
23 16 13
23 17 45
23 18 46
23 19 16
23 20 26
23 21 18
23 22 7
